20 64
1 5 1
1 6 1
1 7 1
1 8 1
1 20 1
2 5 1
2 6 1
2 9 1
2 11 1
2 12 1
2 16 1
3 5 1
3 7 1
3 9 1
3 10 1
3 11 1
3 12 1
3 13 1
3 15 1
3 16 1
3 17 1
3 19 1
3 20 1
4 5 1
4 6 1
4 7 1
4 13 1
4 16 1
5 6 1
5 7 1
5 8 1
5 11 1
5 12 1
5 13 1
5 14 1
5 15 1
5 18 1
5 19 1
5 20 1
6 8 1
6 9 1
6 10 1
6 14 1
6 17 1
6 18 1
7 8 1
7 10 1
7 11 1
7 18 1
7 20 1
8 9 1
9 10 1
9 15 1
10 12 1
10 13 1
10 14 1
10 15 1
11 19 1
12 14 1
12 19 1
13 17 1
14 17 1
15 16 1
15 18 1
